131
85
41
73
66
2
119
49
63
15
60
21
63
7
42
72
70
24
48
28
110
86
78
34
40
91
41
97
61
63
125
70
128
126
42
42
86
24
74
54
68
106
11
34
50
15
11
107
55
41
131
68
59
89
58
29
4
82
1
70
112
98
30
94
49
81
97
104
125
54
42
119
26
108
126
14
10
84
47
75
104
92
16
102
43
19
98
4
64
117
92
30
116
29
75
97
55
4
15
86
